26412.41 
28130.74 
27904.51 
28159.03 
24702.77 
15756.82 
16109.28 
16041.73 
16327.71 
15815.13 
13497.71 
14675.02 
13666.25 
13629.54 
13896.76 
12618.68 
13386.17 
12852.52 
13521.52 
12362.26
